p wcnf 120 1600
9 -115 -118 0
4 -115 118 0
8 -115 120 0
9 -114 -119 0
10 -112 -120 0
3 -112 117 0
3 -110 -112 0
3 -110 -111 0
6 -110 112 0
6 -108 112 0
9 -108 120 0
1 -107 -109 0
3 -107 -108 0
4 -107 116 0
6 -106 113 0
10 -104 -120 0
5 -104 -116 0
2 -104 -108 0
2 -104 -105 0
10 -103 108 0
1 -103 120 0
6 -102 -114 0
9 -102 111 0
9 -101 107 0
10 -101 113 0
5 -99 100 0
6 -99 109 0
9 -98 -112 0
2 -98 106 0
2 -98 112 0
8 -97 -113 0
10 -97 -102 0
5 -97 99 0
6 -96 -99 0
9 -96 98 0
5 -96 101 0
8 -95 -102 0
2 -95 110 0
7 -94 -108 0
4 -94 103 0
7 -93 94 0
6 -93 97 0
4 -93 107 0
9 -93 115 0
9 -92 -114 0
9 -92 -112 0
8 -92 -108 0
4 -92 116 0
2 -91 -111 0
9 -91 -107 0
4 -91 93 0
2 -91 119 0
5 -90 -108 0
3 -90 -106 0
9 -90 -97 0
5 -90 108 0
7 -89 -119 0
6 -89 -116 0
4 -88 -114 0
8 -88 -97 0
7 -88 93 0
1 -88 96 0
8 -87 -99 0
2 -87 102 0
6 -86 -119 0
6 -86 -118 0
6 -86 -114 0
4 -86 -95 0
7 -85 -119 0
2 -85 -118 0
7 -85 -111 0
5 -85 116 0
7 -84 -107 0
2 -84 -88 0
3 -84 101 0
5 -84 104 0
10 -84 120 0
2 -83 -114 0
8 -83 -106 0
1 -83 -94 0
1 -83 -85 0
2 -83 -84 0
2 -83 114 0
5 -82 -113 0
4 -82 -83 0
1 -81 -96 0
9 -81 97 0
1 -80 93 0
6 -80 100 0
3 -80 107 0
8 -80 120 0
2 -79 -83 0
4 -79 86 0
6 -79 96 0
3 -79 100 0
9 -79 103 0
2 -79 117 0
8 -78 -115 0
3 -78 -99 0
9 -78 99 0
9 -78 111 0
10 -77 -119 0
3 -77 -118 0
5 -77 -106 0
1 -77 -101 0
6 -77 -85 0
10 -77 107 0
10 -77 110 0
7 -77 111 0
8 -77 112 0
1 -76 -108 0
7 -76 -100 0
9 -76 -81 0
2 -76 78 0
2 -76 94 0
4 -76 114 0
2 -75 -105 0
1 -75 -99 0
4 -75 -92 0
7 -75 78 0
4 -75 104 0
2 -74 -108 0
8 -74 -91 0
6 -74 -86 0
7 -74 -79 0
1 -74 -75 0
5 -74 80 0
8 -74 108 0
8 -74 117 0
8 -73 -110 0
7 -73 -104 0
7 -73 76 0
7 -73 83 0
9 -73 93 0
2 -73 101 0
8 -73 102 0
5 -73 110 0
2 -73 120 0
7 -72 -78 0
2 -72 -77 0
9 -72 86 0
8 -72 93 0
8 -72 95 0
8 -72 111 0
8 -72 119 0
9 -71 -111 0
2 -71 -107 0
9 -71 -106 0
10 -71 -85 0
5 -71 81 0
6 -71 99 0
3 -71 110 0
6 -71 118 0
4 -70 -92 0
9 -70 72 0
3 -70 95 0
4 -70 103 0
4 -70 109 0
1 -70 117 0
2 -69 -111 0
2 -69 -107 0
7 -69 -86 0
7 -69 -74 0
8 -69 -70 0
7 -69 82 0
8 -69 85 0
6 -69 88 0
2 -69 117 0
9 -68 -111 0
3 -68 -101 0
3 -68 -97 0
8 -68 -77 0
10 -68 -69 0
10 -68 69 0
6 -68 73 0
8 -68 74 0
9 -68 85 0
7 -68 86 0
7 -68 103 0
9 -67 -116 0
1 -67 -115 0
3 -67 -113 0
2 -67 -100 0
6 -67 -83 0
6 -67 -80 0
10 -67 -74 0
8 -67 -68 0
9 -67 101 0
4 -67 103 0
8 -67 109 0
10 -67 119 0
5 -66 -108 0
5 -66 -99 0
7 -66 -88 0
3 -66 -86 0
2 -66 -74 0
6 -66 -70 0
8 -66 73 0
2 -65 -105 0
5 -65 -88 0
1 -65 -72 0
5 -65 91 0
3 -64 -107 0
10 -64 -106 0
5 -64 -100 0
8 -64 -99 0
8 -64 -77 0
4 -64 -74 0
5 -64 -72 0
5 -64 -66 0
2 -64 119 0
6 -63 -70 0
7 -63 95 0
3 -63 108 0
2 -62 -102 0
3 -62 -77 0
3 -62 -74 0
9 -62 -68 0
3 -62 67 0
6 -62 71 0
7 -62 116 0
3 -61 -99 0
9 -61 -92 0
2 -61 -85 0
9 -61 -74 0
3 -61 72 0
2 -61 82 0
5 -61 84 0
9 -61 90 0
4 -61 96 0
9 -61 98 0
9 -61 103 0
7 -61 112 0
2 -60 -114 0
9 -60 -108 0
2 -60 -102 0
9 -60 -88 0
7 -60 -84 0
4 -60 -73 0
4 -60 -70 0
2 -60 79 0
5 -60 87 0
9 -60 118 0
8 -59 -109 0
7 -59 -79 0
9 -59 -70 0
2 -59 62 0
9 -59 84 0
8 -59 91 0
3 -58 -89 0
5 -58 -71 0
5 -58 -66 0
5 -58 -60 0
4 -57 -115 0
5 -57 -112 0
4 -57 -110 0
6 -57 -105 0
7 -57 -97 0
8 -57 -76 0
5 -57 65 0
9 -57 71 0
7 -57 85 0
4 -57 111 0
7 -57 115 0
8 -56 -115 0
4 -56 -112 0
7 -56 -79 0
7 -56 70 0
9 -56 76 0
2 -56 93 0
10 -56 99 0
1 -55 -120 0
6 -55 111 0
9 -55 115 0
9 -54 -116 0
4 -54 -98 0
8 -54 -93 0
9 -54 -83 0
3 -54 -57 0
6 -54 60 0
3 -54 78 0
7 -54 82 0
1 -53 -60 0
7 -53 -55 0
10 -53 113 0
6 -53 119 0
10 -52 -115 0
6 -52 -75 0
2 -52 63 0
8 -52 67 0
10 -52 78 0
2 -52 89 0
4 -52 113 0
4 -51 -108 0
7 -51 -93 0
2 -51 -84 0
7 -51 -80 0
5 -51 -68 0
8 -51 -59 0
6 -51 62 0
6 -51 72 0
8 -51 101 0
6 -51 102 0
2 -50 -71 0
6 -50 -63 0
5 -50 67 0
4 -50 94 0
4 -50 106 0
4 -49 -120 0
6 -49 -113 0
9 -49 -63 0
6 -49 -61 0
3 -49 63 0
9 -49 68 0
3 -49 110 0
3 -48 -101 0
5 -48 -72 0
3 -48 50 0
8 -47 -120 0
6 -47 -104 0
10 -47 -57 0
7 -47 50 0
7 -47 57 0
4 -47 73 0
1 -47 78 0
4 -47 79 0
5 -47 97 0
7 -47 104 0
8 -47 114 0
3 -46 -117 0
3 -46 -116 0
4 -46 -96 0
10 -46 -84 0
9 -46 -63 0
4 -46 66 0
6 -46 95 0
4 -45 -114 0
8 -45 -107 0
9 -45 -78 0
7 -45 -76 0
4 -45 -75 0
8 -45 -63 0
4 -45 59 0
6 -45 60 0
8 -45 67 0
6 -45 87 0
8 -45 95 0
3 -45 96 0
8 -45 108 0
6 -44 -89 0
8 -44 -84 0
8 -44 -83 0
3 -44 -64 0
5 -44 45 0
2 -44 49 0
3 -44 71 0
8 -43 -113 0
6 -43 -111 0
10 -43 -110 0
6 -43 -101 0
8 -43 -96 0
3 -43 -56 0
8 -43 -45 0
8 -43 44 0
2 -43 54 0
3 -43 62 0
4 -43 70 0
4 -43 78 0
10 -43 80 0
2 -43 112 0
1 -42 -120 0
4 -42 -98 0
10 -42 -97 0
4 -42 -72 0
9 -42 -43 0
7 -42 58 0
9 -42 64 0
7 -42 73 0
9 -42 74 0
7 -42 78 0
3 -42 88 0
7 -41 -90 0
4 -41 -68 0
4 -41 -48 0
1 -41 42 0
5 -41 46 0
7 -41 74 0
8 -41 103 0
2 -41 108 0
6 -40 -115 0
4 -40 -98 0
9 -40 -48 0
8 -40 59 0
2 -40 90 0
7 -39 -78 0
9 -39 -62 0
4 -39 -47 0
10 -39 66 0
3 -39 91 0
4 -39 92 0
2 -39 115 0
3 -38 -104 0
7 -38 -100 0
2 -38 -75 0
6 -38 -64 0
5 -38 -42 0
8 -38 46 0
5 -38 54 0
2 -38 94 0
7 -38 97 0
2 -38 102 0
4 -38 115 0
4 -37 -70 0
5 -37 -54 0
7 -37 -44 0
4 -37 44 0
9 -37 69 0
4 -37 77 0
3 -37 91 0
10 -36 -116 0
9 -36 -114 0
6 -36 -93 0
9 -36 -57 0
8 -36 -45 0
7 -36 -41 0
6 -36 45 0
6 -36 56 0
1 -36 75 0
6 -36 76 0
8 -36 86 0
4 -35 -112 0
7 -35 -66 0
2 -35 -58 0
9 -35 -46 0
8 -34 -117 0
7 -34 -97 0
5 -34 -74 0
6 -34 -61 0
2 -34 -53 0
6 -34 -42 0
3 -34 43 0
3 -34 58 0
9 -34 82 0
6 -34 90 0
7 -34 116 0
7 -33 -110 0
9 -33 -71 0
6 -33 -70 0
10 -33 70 0
2 -33 81 0
6 -33 104 0
9 -32 -72 0
6 -32 -68 0
5 -32 -63 0
7 -32 -62 0
3 -32 -49 0
10 -32 -44 0
3 -32 -39 0
4 -32 35 0
5 -32 58 0
1 -32 63 0
7 -32 91 0
2 -32 112 0
2 -31 -118 0
6 -31 -89 0
9 -31 -85 0
8 -31 -81 0
10 -31 -52 0
5 -31 45 0
9 -31 46 0
6 -30 -117 0
7 -30 -105 0
2 -30 -101 0
6 -30 -56 0
3 -30 -55 0
8 -30 -44 0
2 -30 -40 0
2 -30 44 0
3 -30 57 0
2 -30 79 0
3 -29 -117 0
8 -29 -113 0
1 -29 -96 0
9 -29 -85 0
3 -29 -83 0
7 -29 -69 0
2 -29 40 0
3 -29 72 0
9 -29 74 0
5 -29 87 0
7 -29 107 0
9 -28 -105 0
1 -28 -96 0
9 -28 -89 0
1 -28 -86 0
6 -28 -80 0
7 -28 -78 0
8 -28 -47 0
6 -28 -39 0
2 -28 53 0
8 -28 59 0
3 -28 80 0
8 -28 84 0
9 -28 92 0
7 -28 102 0
9 -28 115 0
6 -27 -92 0
8 -27 -62 0
2 -27 -37 0
9 -27 -32 0
9 -27 -29 0
4 -27 33 0
7 -27 40 0
9 -27 78 0
3 -27 82 0
9 -27 92 0
6 -27 94 0
4 -26 -106 0
2 -26 -58 0
5 -26 -46 0
8 -26 -32 0
8 -26 -28 0
4 -26 74 0
8 -26 96 0
7 -26 105 0
5 -26 117 0
4 -26 120 0
4 -25 -114 0
3 -25 -95 0
10 -25 -73 0
5 -25 -61 0
10 -25 -54 0
2 -25 -45 0
2 -25 -28 0
8 -25 45 0
9 -25 49 0
2 -25 67 0
4 -25 86 0
7 -25 88 0
2 -24 -110 0
3 -24 -104 0
6 -24 -88 0
5 -24 -84 0
9 -24 -82 0
6 -24 -73 0
7 -24 -70 0
7 -24 -68 0
2 -24 -64 0
10 -24 -37 0
8 -24 28 0
6 -24 40 0
7 -24 57 0
6 -24 74 0
9 -24 80 0
5 -24 84 0
3 -24 87 0
4 -24 116 0
9 -23 -28 0
5 -23 26 0
6 -23 65 0
8 -22 -111 0
9 -22 -99 0
5 -22 -89 0
9 -22 -61 0
1 -22 28 0
4 -22 30 0
8 -22 54 0
2 -22 69 0
7 -22 101 0
5 -22 111 0
4 -21 -108 0
9 -21 -104 0
1 -21 -99 0
8 -21 -95 0
8 -21 -62 0
6 -21 -42 0
5 -21 45 0
5 -21 51 0
7 -21 76 0
5 -21 101 0
3 -21 105 0
3 -21 110 0
2 -20 -115 0
8 -20 -109 0
2 -20 -106 0
7 -20 -98 0
10 -20 -93 0
4 -20 -72 0
5 -20 -60 0
5 -20 -57 0
9 -20 -31 0
3 -20 28 0
4 -20 39 0
4 -20 46 0
3 -20 53 0
5 -20 58 0
7 -20 60 0
10 -20 86 0
6 -20 105 0
4 -20 114 0
5 -19 -115 0
9 -19 -86 0
3 -19 -70 0
5 -19 -44 0
7 -19 -30 0
9 -19 -25 0
10 -19 33 0
2 -19 35 0
4 -19 79 0
7 -19 80 0
6 -19 105 0
6 -18 -112 0
9 -18 -62 0
7 -18 -59 0
5 -18 -46 0
9 -18 -31 0
4 -18 -28 0
5 -18 22 0
4 -18 23 0
8 -18 47 0
9 -18 54 0
3 -18 65 0
1 -18 71 0
3 -17 -104 0
6 -17 -88 0
3 -17 -81 0
7 -17 -74 0
3 -17 -72 0
2 -17 24 0
3 -17 25 0
6 -17 47 0
6 -17 70 0
2 -17 74 0
8 -17 79 0
10 -17 88 0
8 -17 112 0
7 -16 -93 0
10 -16 -78 0
9 -16 -21 0
1 -16 29 0
7 -16 31 0
6 -16 33 0
6 -16 36 0
5 -16 52 0
3 -16 60 0
1 -16 67 0
5 -16 72 0
6 -16 75 0
5 -16 81 0
7 -15 -93 0
4 -15 -92 0
4 -15 -66 0
9 -15 -58 0
4 -15 -50 0
6 -15 -36 0
5 -15 -18 0
6 -15 -17 0
3 -15 68 0
7 -15 79 0
7 -15 107 0
5 -15 117 0
3 -14 -104 0
3 -14 -91 0
7 -14 -86 0
10 -14 -84 0
3 -14 -57 0
5 -14 20 0
7 -14 21 0
3 -14 32 0
4 -14 52 0
7 -14 69 0
9 -14 83 0
9 -14 84 0
3 -14 97 0
4 -14 102 0
2 -14 103 0
3 -14 110 0
7 -14 113 0
7 -13 -87 0
7 -13 -79 0
5 -13 -33 0
10 -13 -17 0
9 -13 40 0
4 -13 42 0
4 -13 49 0
5 -13 88 0
8 -13 117 0
9 -12 -65 0
7 -12 -59 0
6 -12 -52 0
6 -12 -44 0
3 -12 18 0
8 -12 37 0
9 -12 41 0
8 -12 55 0
8 -12 59 0
2 -12 62 0
3 -12 84 0
4 -12 110 0
4 -11 -90 0
7 -11 -74 0
10 -11 -66 0
3 -11 -65 0
6 -11 -52 0
3 -11 -44 0
5 -11 -25 0
6 -11 -19 0
5 -11 -12 0
2 -11 17 0
3 -11 23 0
2 -11 36 0
6 -11 95 0
3 -10 -113 0
1 -10 -111 0
9 -10 -110 0
6 -10 -40 0
6 -10 -33 0
7 -10 20 0
4 -10 32 0
3 -10 62 0
3 -10 79 0
10 -10 87 0
5 -10 98 0
10 -9 -101 0
8 -9 -96 0
3 -9 -71 0
7 -9 -15 0
9 -9 11 0
5 -9 59 0
1 -9 80 0
3 -9 93 0
2 -8 -108 0
10 -8 -80 0
5 -8 -22 0
6 -8 -19 0
2 -8 10 0
9 -8 36 0
3 -8 83 0
6 -8 111 0
2 -7 -119 0
5 -7 -100 0
7 -7 -95 0
7 -7 -33 0
7 -7 -19 0
7 -7 32 0
6 -7 57 0
2 -7 75 0
3 -7 79 0
3 -7 82 0
6 -7 85 0
5 -6 -113 0
5 -6 -112 0
5 -6 -106 0
9 -6 -100 0
4 -6 -89 0
4 -6 -76 0
2 -6 -55 0
1 -6 -38 0
3 -6 -27 0
6 -6 -25 0
1 -6 8 0
5 -6 9 0
7 -6 16 0
10 -6 17 0
9 -6 31 0
3 -6 68 0
2 -6 109 0
8 -6 117 0
5 -5 -120 0
7 -5 -111 0
9 -5 -92 0
9 -5 -86 0
4 -5 -79 0
6 -5 33 0
5 -5 48 0
2 -5 52 0
1 -5 55 0
7 -5 58 0
4 -5 90 0
3 -5 91 0
2 -5 116 0
7 -4 -104 0
7 -4 -48 0
7 -4 -28 0
6 -4 -27 0
10 -4 -10 0
9 -4 9 0
6 -4 19 0
10 -4 49 0
2 -4 62 0
2 -4 79 0
1 -4 100 0
7 -3 -117 0
8 -3 -99 0
10 -3 -69 0
6 -3 -65 0
1 -3 -63 0
2 -3 -57 0
5 -3 -38 0
5 -3 -28 0
8 -3 -24 0
4 -3 -16 0
4 -3 12 0
2 -3 36 0
8 -3 47 0
8 -3 49 0
3 -3 56 0
9 -3 71 0
5 -3 88 0
6 -2 -21 0
2 -2 15 0
6 -2 19 0
3 -2 21 0
8 -2 40 0
3 -2 51 0
8 -2 63 0
8 -2 69 0
2 -2 80 0
4 -2 82 0
8 -2 94 0
3 -2 109 0
5 -2 112 0
8 -2 114 0
9 -2 118 0
3 -1 -105 0
8 -1 -92 0
5 -1 -74 0
3 -1 -71 0
9 -1 -68 0
9 -1 -65 0
7 -1 -58 0
7 -1 -57 0
2 -1 -55 0
10 -1 -36 0
8 -1 -34 0
10 -1 2 0
8 -1 41 0
1 -1 60 0
9 -1 82 0
3 -1 93 0
6 -1 100 0
10 1 -87 0
8 1 -81 0
8 1 -61 0
8 1 -38 0
9 1 9 0
5 1 17 0
6 1 20 0
1 1 30 0
9 1 32 0
4 1 66 0
4 1 81 0
4 1 101 0
2 2 -87 0
3 2 -58 0
6 2 -46 0
8 2 -8 0
7 2 5 0
8 2 21 0
7 2 26 0
5 2 63 0
6 2 82 0
4 2 117 0
7 3 -111 0
6 3 -89 0
2 3 -86 0
6 3 -44 0
4 3 -31 0
3 3 -16 0
5 3 -8 0
5 3 5 0
7 3 13 0
5 3 31 0
3 3 76 0
5 3 119 0
2 4 -104 0
2 4 -77 0
9 4 -65 0
7 4 -43 0
3 4 14 0
8 4 28 0
10 4 29 0
5 4 31 0
2 5 -112 0
1 5 -79 0
7 5 -66 0
7 5 -56 0
9 5 -14 0
4 5 -12 0
5 5 31 0
6 5 38 0
8 5 50 0
10 5 57 0
9 5 73 0
5 5 74 0
5 5 115 0
1 6 -113 0
1 6 -68 0
8 6 -66 0
3 6 -53 0
5 6 9 0
3 6 31 0
9 6 57 0
9 6 109 0
5 6 113 0
4 7 -119 0
1 7 -111 0
6 7 -108 0
3 7 -65 0
7 7 -26 0
8 7 29 0
1 7 30 0
7 7 46 0
3 7 50 0
2 7 113 0
8 8 -95 0
9 8 -72 0
8 8 -44 0
6 8 -25 0
3 8 -11 0
3 8 22 0
3 8 31 0
10 8 50 0
3 8 54 0
2 8 55 0
4 8 80 0
7 8 90 0
2 9 -112 0
5 9 -89 0
5 9 -69 0
4 9 -43 0
9 9 -39 0
7 9 24 0
3 9 28 0
7 9 32 0
2 9 72 0
6 9 120 0
7 10 -119 0
7 10 -107 0
8 10 -87 0
5 10 -86 0
5 10 -83 0
9 10 -71 0
2 10 -57 0
7 10 -45 0
10 10 -40 0
8 10 -11 0
6 10 31 0
7 10 48 0
5 10 56 0
8 10 57 0
9 10 71 0
6 10 72 0
7 10 106 0
2 11 -107 0
7 11 -85 0
2 11 -73 0
7 11 -57 0
8 11 -35 0
5 11 -17 0
2 11 33 0
2 11 35 0
4 11 54 0
8 11 95 0
4 12 -82 0
1 12 -46 0
8 12 76 0
8 12 88 0
7 12 95 0
5 12 97 0
7 12 115 0
2 13 -119 0
9 13 -113 0
6 13 -109 0
3 13 -92 0
6 13 -88 0
5 13 -34 0
1 13 -14 0
2 13 31 0
3 13 33 0
5 13 81 0
9 14 -114 0
2 14 -111 0
2 14 -109 0
6 14 -99 0
2 14 -90 0
7 14 -60 0
6 14 -50 0
9 14 -22 0
5 14 21 0
2 14 29 0
10 14 86 0
6 14 87 0
4 14 93 0
7 14 107 0
8 14 110 0
4 15 -120 0
6 15 -99 0
7 15 -63 0
2 15 -34 0
10 15 35 0
4 15 55 0
3 15 71 0
9 15 86 0
8 15 102 0
5 15 103 0
5 16 -115 0
4 16 -32 0
5 16 -26 0
6 16 40 0
5 16 48 0
9 16 51 0
4 16 68 0
6 16 72 0
10 16 73 0
9 16 79 0
7 16 95 0
7 17 -112 0
5 17 -95 0
6 17 -89 0
3 17 -72 0
6 17 -55 0
6 17 -43 0
8 17 -41 0
9 17 -21 0
4 17 46 0
6 17 68 0
4 17 70 0
8 17 77 0
3 18 -96 0
4 18 -95 0
8 18 -62 0
6 18 -57 0
6 18 -55 0
6 18 -51 0
4 18 -42 0
1 18 -30 0
10 18 26 0
7 18 72 0
6 19 -77 0
5 19 -56 0
2 19 -43 0
5 19 -25 0
9 19 30 0
7 19 45 0
5 19 58 0
8 19 90 0
5 19 103 0
3 20 -114 0
3 20 -102 0
10 20 -96 0
4 20 -91 0
8 20 -56 0
6 20 -48 0
2 20 22 0
8 20 32 0
9 20 34 0
7 20 56 0
1 20 117 0
7 21 -89 0
9 21 -88 0
5 21 -59 0
5 21 -43 0
5 21 44 0
1 21 85 0
10 22 -118 0
8 22 -87 0
1 22 -75 0
10 22 -65 0
5 22 -42 0
6 22 -29 0
5 22 29 0
7 22 33 0
1 22 41 0
4 22 78 0
4 22 88 0
5 22 91 0
2 23 -116 0
8 23 -108 0
7 23 -101 0
4 23 -93 0
8 23 -87 0
1 23 -64 0
2 23 94 0
4 23 116 0
2 24 -114 0
8 24 -110 0
2 24 -100 0
8 24 -98 0
9 24 -64 0
8 24 -58 0
7 24 -51 0
3 24 -43 0
3 24 28 0
2 24 37 0
3 24 43 0
2 24 53 0
10 24 66 0
4 24 69 0
2 24 73 0
5 24 81 0
9 25 -118 0
6 25 -113 0
2 25 -96 0
9 25 -92 0
9 25 -70 0
5 25 -46 0
4 25 53 0
10 25 93 0
3 25 99 0
1 25 114 0
3 26 -81 0
9 26 -54 0
1 26 -43 0
4 26 -41 0
3 26 -34 0
2 26 28 0
3 26 52 0
4 26 68 0
9 26 79 0
2 26 81 0
2 27 -119 0
7 27 -113 0
4 27 -79 0
4 27 -42 0
8 27 -33 0
6 27 31 0
5 27 85 0
8 27 112 0
9 27 114 0
6 28 -111 0
3 28 -108 0
8 28 -80 0
3 28 -42 0
4 28 -32 0
7 28 45 0
2 28 66 0
8 28 86 0
2 28 93 0
2 28 119 0
1 29 -64 0
2 29 -45 0
4 29 -43 0
9 29 34 0
2 29 39 0
8 29 45 0
2 29 56 0
3 29 65 0
9 29 76 0
5 29 89 0
3 30 -89 0
10 30 -88 0
7 30 -47 0
8 30 34 0
4 30 51 0
9 30 52 0
6 30 70 0
9 30 71 0
5 30 88 0
4 30 112 0
8 30 116 0
1 31 -69 0
6 31 -66 0
6 31 119 0
3 32 -114 0
10 32 -92 0
4 32 -86 0
4 32 -75 0
8 32 -73 0
4 32 -62 0
4 32 -46 0
8 32 34 0
5 32 55 0
8 32 58 0
8 33 -108 0
6 33 -103 0
5 33 -68 0
9 33 -61 0
8 33 -55 0
4 33 -52 0
4 33 -37 0
9 33 45 0
4 33 48 0
10 33 58 0
8 33 66 0
7 33 69 0
9 33 71 0
4 33 72 0
6 33 79 0
4 33 103 0
7 33 106 0
4 33 108 0
4 34 -112 0
4 34 -102 0
10 34 -88 0
6 34 -83 0
3 34 -82 0
3 34 -40 0
8 34 41 0
1 34 63 0
6 34 71 0
3 34 75 0
9 34 88 0
1 34 93 0
9 35 -113 0
6 35 -97 0
6 35 -95 0
5 35 -78 0
5 35 -55 0
4 35 -51 0
8 35 49 0
8 35 56 0
3 35 57 0
2 35 63 0
8 35 110 0
9 35 115 0
8 36 -80 0
7 36 -76 0
3 36 -52 0
5 36 69 0
10 36 80 0
9 36 85 0
8 37 -112 0
4 37 -104 0
3 37 -81 0
8 37 -44 0
8 37 51 0
5 37 56 0
10 37 59 0
7 37 60 0
6 37 92 0
6 37 93 0
9 37 105 0
5 37 106 0
6 37 109 0
8 38 -114 0
10 38 -110 0
2 38 -86 0
3 38 -55 0
5 38 -41 0
4 38 54 0
10 38 61 0
3 38 93 0
6 39 -119 0
2 39 -111 0
1 39 -108 0
5 39 -101 0
10 39 -82 0
7 39 -76 0
8 39 -66 0
4 39 -63 0
7 39 -41 0
7 39 47 0
2 39 72 0
1 40 -115 0
9 40 -82 0
8 40 -71 0
9 40 -63 0
4 40 -44 0
8 40 54 0
5 40 60 0
9 40 108 0
4 41 -68 0
4 41 -67 0
4 41 76 0
9 41 113 0
2 42 -100 0
4 42 -52 0
1 42 53 0
4 42 57 0
8 42 113 0
4 43 -99 0
4 43 -90 0
1 43 -85 0
9 43 -74 0
5 43 49 0
2 43 66 0
5 43 77 0
5 43 110 0
8 43 112 0
3 44 -75 0
8 44 -69 0
5 44 47 0
9 44 51 0
9 44 57 0
5 44 87 0
8 44 110 0
7 44 112 0
4 45 -118 0
2 45 -86 0
5 45 -61 0
8 45 47 0
2 45 54 0
9 45 63 0
3 45 68 0
5 45 89 0
8 45 102 0
4 45 112 0
7 46 -85 0
8 46 -61 0
7 46 53 0
5 46 66 0
2 46 77 0
1 47 -94 0
5 47 -72 0
2 47 -53 0
6 47 52 0
6 47 103 0
5 47 115 0
9 48 -117 0
4 48 -78 0
7 48 -71 0
7 48 -56 0
8 48 -53 0
6 48 53 0
6 48 96 0
4 48 105 0
4 48 120 0
3 49 -110 0
7 49 -73 0
5 49 -69 0
7 49 -54 0
5 49 53 0
6 49 59 0
6 49 68 0
7 49 98 0
10 49 110 0
3 50 -74 0
10 50 -54 0
7 50 60 0
1 50 74 0
7 51 -97 0
2 51 -89 0
2 51 -60 0
7 51 55 0
7 51 60 0
3 51 90 0
3 52 -116 0
3 52 -99 0
7 52 -90 0
2 52 -84 0
5 52 -69 0
4 52 -66 0
8 52 -60 0
4 52 66 0
9 52 68 0
4 52 70 0
6 53 -98 0
3 53 -87 0
6 53 -79 0
3 53 -72 0
8 53 -70 0
3 53 -57 0
7 53 75 0
4 53 93 0
7 53 96 0
3 53 100 0
4 54 -117 0
9 54 -109 0
3 54 -105 0
1 54 -103 0
10 54 -95 0
9 54 -94 0
3 54 111 0
2 55 -112 0
6 55 -105 0
8 55 -104 0
4 55 -103 0
8 55 -85 0
1 55 -65 0
1 55 68 0
9 55 78 0
6 55 84 0
5 55 95 0
7 55 101 0
8 55 106 0
4 56 -113 0
10 56 -85 0
5 56 -69 0
6 56 98 0
5 57 -81 0
7 57 -74 0
4 57 -70 0
7 57 -69 0
4 57 -65 0
7 57 77 0
4 57 86 0
6 57 102 0
1 57 106 0
3 57 107 0
8 57 116 0
1 58 -109 0
3 58 -83 0
7 58 -72 0
3 58 -65 0
4 58 -63 0
3 58 105 0
1 58 115 0
7 58 119 0
9 59 -113 0
2 59 -101 0
7 59 -92 0
8 59 -71 0
6 59 103 0
2 59 110 0
5 60 -115 0
5 60 -84 0
5 60 -82 0
5 60 61 0
8 60 65 0
1 61 -80 0
9 61 68 0
5 61 70 0
5 61 74 0
6 61 89 0
7 61 94 0
2 61 104 0
9 62 -107 0
3 62 -74 0
2 62 86 0
2 62 99 0
1 62 104 0
2 63 -106 0
4 63 -89 0
7 63 -69 0
4 63 100 0
7 64 -113 0
9 64 -101 0
4 64 -95 0
4 64 -84 0
8 65 -73 0
5 65 68 0
2 66 -111 0
6 66 -101 0
1 66 -87 0
3 66 -86 0
1 66 96 0
5 66 102 0
7 66 119 0
5 67 82 0
3 67 90 0
7 67 97 0
4 67 100 0
6 67 114 0
2 67 115 0
9 67 116 0
4 68 -95 0
2 68 -91 0
8 68 -82 0
6 68 73 0
3 68 112 0
10 69 -109 0
6 69 -85 0
4 69 73 0
4 69 88 0
3 69 97 0
7 69 109 0
1 70 -109 0
2 70 -90 0
2 70 -86 0
5 70 -75 0
9 70 116 0
5 71 -82 0
5 71 -79 0
5 71 -75 0
5 71 -73 0
7 71 76 0
5 71 84 0
9 71 92 0
4 71 109 0
10 72 85 0
2 72 104 0
10 72 109 0
4 72 117 0
7 73 100 0
1 73 107 0
4 73 111 0
10 73 120 0
3 74 -110 0
2 74 -94 0
6 74 -79 0
5 74 77 0
2 74 92 0
2 74 94 0
8 75 -98 0
5 75 -81 0
4 75 100 0
5 75 102 0
5 75 109 0
4 75 116 0
6 76 -113 0
9 76 -100 0
3 76 -81 0
1 76 92 0
4 76 114 0
7 77 -106 0
6 77 102 0
1 77 109 0
2 78 -92 0
5 78 -81 0
4 78 87 0
2 78 103 0
5 78 108 0
4 79 -89 0
5 79 91 0
3 79 92 0
4 80 -118 0
8 80 -114 0
3 80 -104 0
5 80 -98 0
9 80 -86 0
8 80 86 0
9 80 107 0
10 80 113 0
8 80 120 0
7 81 -106 0
4 81 -103 0
2 81 -84 0
2 81 97 0
8 81 113 0
6 82 -115 0
7 82 -107 0
7 82 -98 0
8 82 107 0
7 82 110 0
1 82 112 0
5 83 -93 0
2 83 93 0
1 83 105 0
6 84 87 0
6 84 93 0
4 84 101 0
7 85 -103 0
1 85 -95 0
7 85 94 0
2 85 117 0
3 86 -88 0
10 86 104 0
9 87 -101 0
4 87 -97 0
5 87 -96 0
8 87 110 0
2 88 -108 0
4 88 -93 0
8 88 94 0
9 88 97 0
1 89 -120 0
2 89 -100 0
2 89 90 0
2 89 103 0
9 89 106 0
6 89 110 0
8 90 -116 0
6 90 -103 0
4 90 -97 0
4 91 94 0
6 91 119 0
8 92 -110 0
5 92 -109 0
6 92 103 0
4 92 104 0
1 92 111 0
10 93 -115 0
10 93 -102 0
1 93 -98 0
6 93 102 0
2 93 105 0
3 93 107 0
6 94 100 0
10 94 101 0
6 95 102 0
1 95 119 0
8 96 120 0
7 99 -102 0
4 100 -119 0
6 100 106 0
7 102 107 0
4 103 -119 0
7 103 120 0
7 104 -113 0
5 104 -109 0
6 104 -108 0
4 104 108 0
3 105 -111 0
2 105 111 0
7 106 -109 0
6 107 -113 0
7 108 -118 0
5 108 114 0
2 109 -120 0
3 109 -115 0
7 109 112 0
2 109 114 0
3 110 116 0
7 112 115 0
2 113 -118 0
8 114 -119 0
8 114 117 0
4 117 -119 0
4 118 -119 0
